50
3 0 2
3 1 5
4 0 5
5 0 4
5 1 1
5 2 3
5 3 2
6 0 1
6 5 1
7 1 3
7 6 2
8 0 3
8 3 4
8 5 2
8 6 3
8 7 2
9 1 2
9 2 4
9 5 1
9 6 4
9 7 1
10 0 4
10 3 4
10 4 3
10 5 4
10 6 5
10 7 4
11 1 2
11 4 4
11 5 1
11 6 5
11 9 2
11 10 5
12 0 2
12 1 2
12 4 2
12 5 3
12 10 4
13 5 5
13 6 4
13 8 5
13 9 3
13 10 4
13 11 2
14 0 1
14 1 5
14 2 5
14 4 5
14 5 2
14 6 2
14 7 4
14 8 1
14 9 5
14 10 1
14 11 5
14 13 1
15 0 5
15 1 2
15 4 4
15 6 3
15 7 2
15 10 1
15 11 4
15 12 3
15 14 3
16 0 1
16 2 3
16 3 5
16 5 1
16 7 1
16 9 3
16 10 5
16 12 3
16 13 5
16 15 3
17 0 3
17 2 2
17 4 5
17 5 5
17 8 1
17 10 5
17 14 2
17 15 4
18 3 4
18 5 3
18 7 3
18 15 2
19 0 3
19 2 3
19 3 2
19 4 1
19 5 5
19 6 2
19 13 5
19 16 2
19 17 2
20 0 3
20 5 1
20 6 3
20 8 1
20 13 1
20 14 3
20 18 1
20 19 2
21 0 1
21 1 1
21 4 1
21 7 4
21 10 3
21 11 1
21 16 4
21 17 2
21 18 5
22 0 1
22 3 4
22 4 2
22 5 2
22 7 4
22 13 1
22 15 5
22 17 3
22 20 5
23 1 4
23 2 1
23 6 5
23 7 5
23 8 3
23 9 4
23 13 3
23 14 3
23 15 2
23 19 1
23 20 1
24 1 3
24 2 2
24 5 4
24 7 3
24 8 5
24 9 2
24 10 1
24 11 4
24 17 3
24 19 2
24 20 4
24 21 5
25 0 4
25 1 5
25 3 2
25 5 3
25 6 2
25 7 1
25 10 4
25 11 1
25 15 2
25 16 1
25 17 4
25 19 2
25 21 4
26 3 4
26 4 4
26 6 1
26 14 1
26 17 3
26 19 3
26 21 3
26 23 1
26 24 2
27 2 1
27 3 2
27 7 2
27 11 2
27 12 2
27 13 4
27 14 5
27 16 1
27 19 5
27 20 4
27 22 4
27 23 3
27 24 1
27 25 3
27 26 3
28 1 3
28 2 2
28 3 1
28 4 4
28 6 1
28 7 1
28 8 2
28 9 3
28 11 1
28 14 1
28 21 2
28 22 2
28 26 3
29 0 4
29 1 1
29 2 5
29 3 1
29 4 5
29 6 1
29 7 2
29 8 4
29 9 5
29 14 2
29 16 2
29 17 2
29 18 5
29 19 1
29 20 2
29 21 2
29 23 3
29 24 4
29 25 5
29 28 5
30 2 3
30 3 1
30 4 4
30 7 2
30 8 5
30 18 3
30 19 2
30 24 4
30 28 4
30 29 5
31 0 3
31 2 4
31 4 3
31 5 1
31 8 1
31 13 4
31 14 4
31 16 3
31 17 3
31 20 1
31 21 2
31 22 5
31 24 1
31 30 3
32 0 3
32 1 3
32 4 1
32 9 1
32 11 3
32 14 2
32 16 4
32 19 2
32 21 4
32 23 2
32 24 3
32 25 4
32 26 3
32 28 2
32 29 1
32 30 2
32 31 5
33 1 3
33 2 3
33 3 4
33 4 1
33 5 1
33 6 2
33 8 4
33 10 5
33 12 2
33 15 3
33 17 3
33 18 1
33 20 5
33 21 2
33 23 2
33 24 1
33 25 3
33 26 3
33 27 3
33 28 5
33 29 5
33 30 5
33 31 3
33 32 5
34 0 4
34 1 4
34 2 4
34 3 1
34 4 4
34 6 1
34 8 5
34 10 4
34 12 5
34 13 4
34 15 5
34 16 4
34 17 1
34 18 3
34 19 5
34 22 3
34 26 1
34 29 3
34 31 1
34 32 3
34 33 5
35 0 4
35 1 1
35 2 4
35 4 5
35 6 2
35 7 3
35 8 5
35 10 3
35 11 1
35 16 1
35 17 5
35 20 2
35 22 5
35 24 2
35 25 5
35 28 1
35 29 1
35 33 3
35 34 3
36 4 5
36 5 3
36 6 2
36 7 5
36 11 2
36 12 5
36 13 4
36 16 5
36 17 3
36 21 4
36 23 3
36 25 5
36 26 1
36 30 1
36 31 1
36 32 1
36 33 4
36 35 5
37 0 2
37 1 1
37 4 5
37 7 4
37 8 4
37 9 2
37 10 2
37 11 2
37 12 4
37 14 2
37 15 1
37 18 3
37 19 4
37 20 4
37 21 3
37 23 4
37 24 2
37 25 4
37 28 3
37 33 1
37 34 4
37 35 4
37 36 5
38 0 4
38 3 2
38 4 3
38 5 2
38 10 2
38 12 3
38 13 4
38 14 4
38 16 3
38 17 2
38 18 3
38 21 3
38 24 4
38 27 4
38 30 2
38 32 2
38 35 1
39 1 5
39 2 2
39 5 4
39 6 5
39 7 3
39 8 3
39 11 4
39 12 2
39 14 3
39 15 1
39 16 4
39 22 4
39 25 1
39 26 1
39 27 1
39 28 3
39 30 1
39 31 1
39 33 4
39 35 1
39 36 1
40 0 1
40 2 2
40 3 1
40 4 5
40 6 2
40 9 4
40 11 4
40 12 3
40 13 4
40 14 5
40 15 5
40 16 2
40 17 1
40 20 4
40 23 3
40 24 1
40 28 1
40 31 2
40 33 5
41 1 2
41 6 4
41 8 3
41 10 2
41 13 5
41 14 3
41 15 5
41 16 4
41 17 1
41 18 4
41 21 4
41 23 2
41 24 1
41 28 2
41 30 2
41 32 1
41 35 3
41 36 1
41 37 4
41 39 3
41 40 1
42 2 4
42 5 4
42 6 2
42 7 5
42 8 2
42 9 3
42 11 1
42 12 4
42 14 3
42 16 3
42 17 3
42 20 5
42 21 3
42 22 1
42 25 5
42 28 5
42 36 5
42 37 4
42 39 1
43 0 4
43 4 2
43 6 5
43 7 1
43 9 2
43 12 1
43 13 1
43 19 1
43 21 5
43 22 3
43 23 4
43 26 5
43 27 5
43 28 1
43 29 1
43 30 5
43 31 1
43 34 2
43 36 1
43 41 1
44 1 2
44 2 4
44 3 1
44 4 1
44 8 2
44 11 4
44 13 5
44 14 1
44 15 4
44 19 2
44 20 1
44 21 3
44 22 3
44 24 3
44 25 5
44 28 2
44 31 1
44 35 1
44 37 1
44 38 2
44 39 1
44 40 4
44 43 3
45 1 5
45 3 2
45 5 3
45 6 5
45 7 4
45 8 3
45 9 1
45 11 4
45 13 5
45 14 5
45 15 4
45 18 2
45 19 4
45 21 2
45 23 2
45 24 5
45 25 1
45 28 2
45 29 4
45 30 3
45 33 1
45 34 1
45 35 4
45 36 2
45 37 2
45 38 4
45 41 2
45 42 2
45 43 4
46 0 1
46 1 5
46 2 3
46 3 4
46 4 1
46 6 5
46 9 3
46 13 3
46 14 4
46 16 3
46 18 4
46 19 5
46 22 1
46 23 3
46 25 4
46 29 5
46 30 1
46 34 4
46 36 3
46 40 2
46 41 5
46 45 2
47 1 5
47 5 5
47 7 2
47 8 3
47 9 1
47 11 3
47 13 4
47 19 4
47 20 4
47 23 1
47 24 2
47 25 2
47 26 1
47 28 3
47 29 2
47 30 5
47 33 4
47 34 1
47 36 2
47 40 2
47 42 3
47 43 2
47 46 5
48 0 4
48 1 3
48 3 4
48 6 5
48 7 4
48 8 1
48 11 1
48 12 1
48 13 1
48 14 4
48 15 1
48 17 5
48 19 1
48 21 5
48 22 5
48 23 3
48 25 1
48 26 5
48 27 2
48 30 4
48 31 1
48 33 3
48 34 5
48 36 3
48 38 5
48 40 2
48 42 2
48 43 3
48 44 1
48 46 1
48 47 3
49 0 3
49 3 2
49 4 5
49 5 3
49 8 2
49 9 4
49 10 3
49 12 4
49 15 2
49 16 3
49 19 5
49 22 2
49 25 2
49 27 2
49 28 2
49 29 4
49 30 1
49 31 3
49 33 3
49 35 1
49 37 5
49 40 3
49 41 2
49 44 4
49 47 1
